param N:= 9;
param C: 1 2 3 4 5 6 7 8 9:=
1    0  625 1000  831 1035  859 1115 1248 1373
2  625    0  528  420  790 1447  560  626 1992
3 1000  528    0  254 1730 1848  595  461 2362
4  831  420  254    0 1684 1690  846  643 2204
5 1035  790 1730 1684    0  911 1550 1738  833
6  859 1447 1848 1690  911    0 1827 2015  628
7 1115  560  595  846 1550 1827    0  313 2275
8 1248  626  461  643 1738 2015  313    0 2459
9 1373 1992 2362 2204  833  628 2275 2459    0;
